TOUR_SECTION
1
29
175
49
53
122
142
97
156
191
169
144
143
166
10
151
145
19
179
12
33
58
35
75
77
107
199
184
43
37
25
182
153
176
47
4
63
112
54
6
108
197
32
83
84
185
140
103
161
82
100
110
162
89
64
24
135
138
118
17
155
51
189
132
46
91
116
180
61
73
123
187
28
16
198
27
174
40
80
190
133
196
13
146
193
9
127
38
101
22
3
45
21
11
15
92
85
195
70
114
113
154
188
7
121
87
152
68
149
95
78
86
160
115
76
93
120
134
178
192
173
65
129
72
136
157
57
159
126
117
71
67
96
139
69
141
171
164
186
99
62
137
130
55
109
44
148
105
183
41
23
163
36
150
119
30
14
20
31
177
52
39
88
201
168
34
131
104
90
66
81
74
167
158
124
125
59
8
56
18
60
200
170
5
111
181
48
147
42
98
102
2
94
194
79
128
106
50
26
172
165
-1
EOF